language Essence 1.3

letting blksize_delta be function(1 --> 5, 2 --> 4, 3 --> 4, 4 --> 3)
letting maxcars be function(1 --> 10, 2 --> 10, 3 --> 10, 4 --> 10)
letting n_cars be 249
letting n_classes be 138
letting n_options be 4
letting quantity be
        function(1 --> 55, 2 --> 49, 3 --> 4, 4 --> 5, 5 --> 3, 6 --> 1, 7 --> 1, 8 --> 1, 9 --> 1, 10 --> 1, 11 --> 1,
                 12 --> 1, 13 --> 1, 14 --> 1, 15 --> 1, 16 --> 1, 17 --> 1, 18 --> 1, 19 --> 1, 20 --> 1, 21 --> 1,
                 22 --> 1, 23 --> 1, 24 --> 1, 25 --> 1, 26 --> 1, 27 --> 1, 28 --> 1, 29 --> 1, 30 --> 1, 31 --> 1,
                 32 --> 1, 33 --> 1, 34 --> 1, 35 --> 1, 36 --> 1, 37 --> 1, 38 --> 1, 39 --> 1, 40 --> 1, 41 --> 1,
                 42 --> 1, 43 --> 1, 44 --> 1, 45 --> 1, 46 --> 1, 47 --> 1, 48 --> 1, 49 --> 1, 50 --> 1, 51 --> 1,
                 52 --> 1, 53 --> 1, 54 --> 1, 55 --> 1, 56 --> 1, 57 --> 1, 58 --> 1, 59 --> 1, 60 --> 1, 61 --> 1,
                 62 --> 1, 63 --> 1, 64 --> 1, 65 --> 1, 66 --> 1, 67 --> 1, 68 --> 1, 69 --> 1, 70 --> 1, 71 --> 1,
                 72 --> 1, 73 --> 1, 74 --> 1, 75 --> 1, 76 --> 1, 77 --> 1, 78 --> 1, 79 --> 1, 80 --> 1, 81 --> 1,
                 82 --> 1, 83 --> 1, 84 --> 1, 85 --> 1, 86 --> 1, 87 --> 1, 88 --> 1, 89 --> 1, 90 --> 1, 91 --> 1,
                 92 --> 1, 93 --> 1, 94 --> 1, 95 --> 1, 96 --> 1, 97 --> 1, 98 --> 1, 99 --> 1, 100 --> 1, 101 --> 1,
                 102 --> 1, 103 --> 1, 104 --> 1, 105 --> 1, 106 --> 1, 107 --> 1, 108 --> 1, 109 --> 1, 110 --> 1,
                 111 --> 1, 112 --> 1, 113 --> 1, 114 --> 1, 115 --> 1, 116 --> 1, 117 --> 1, 118 --> 1, 119 --> 1,
                 120 --> 1, 121 --> 1, 122 --> 1, 123 --> 1, 124 --> 1, 125 --> 1, 126 --> 1, 127 --> 1, 128 --> 1,
                 129 --> 1, 130 --> 1, 131 --> 1, 132 --> 1, 133 --> 1, 134 --> 1, 135 --> 1, 136 --> 1, 137 --> 1,
                 138 --> 1)
letting usage be
        relation((1, 2), (2, 1), (2, 2), (2, 4), (3, 4), (4, 4), (5, 3), (5, 4), (6, 1), (7, 2), (8, 1), (8, 3), (9, 1),
                 (9, 2), (10, 4), (11, 4), (12, 1), (12, 4), (13, 1), (13, 2), (14, 2), (15, 1), (15, 2), (15, 3),
                 (16, 4), (17, 1), (17, 4), (18, 4), (19, 2), (19, 3), (19, 4), (20, 2), (21, 4), (22, 4), (23, 1),
                 (23, 3), (24, 4), (25, 4), (26, 1), (26, 2), (26, 3), (26, 4), (27, 1), (27, 3), (28, 3), (29, 1),
                 (29, 2), (30, 4), (31, 2), (31, 3), (31, 4), (32, 3), (33, 1), (33, 3), (34, 1), (34, 3), (34, 4),
                 (35, 2), (35, 3), (35, 4), (36, 2), (36, 4), (37, 4), (38, 2), (39, 1), (39, 2), (39, 3), (39, 4),
                 (40, 3), (40, 4), (41, 4), (42, 2), (42, 4), (43, 3), (44, 1), (44, 2), (44, 3), (44, 4), (45, 2),
                 (45, 3), (45, 4), (46, 2), (46, 4), (47, 2), (47, 3), (47, 4), (48, 3), (49, 1), (49, 3), (50, 1),
                 (51, 4), (52, 1), (52, 4), (53, 1), (53, 3), (54, 2), (54, 3), (54, 4), (55, 1), (55, 2), (56, 2),
                 (56, 3), (56, 4), (57, 4), (58, 1), (59, 1), (59, 2), (59, 4), (60, 1), (60, 3), (61, 4), (62, 2),
                 (63, 4), (64, 1), (64, 2), (64, 4), (65, 4), (66, 4), (67, 1), (67, 4), (68, 2), (68, 3), (69, 1),
                 (70, 2), (71, 1), (72, 2), (73, 4), (74, 4), (75, 1), (75, 2), (75, 3), (75, 4), (76, 1), (77, 1),
                 (77, 3), (78, 1), (78, 3), (79, 3), (80, 2), (80, 3), (81, 1), (81, 2), (81, 4), (82, 1), (82, 2),
                 (82, 3), (83, 3), (84, 1), (84, 4), (85, 1), (85, 4), (86, 1), (86, 4), (87, 2), (87, 3), (87, 4),
                 (88, 2), (88, 4), (89, 3), (89, 4), (90, 2), (90, 3), (90, 4), (91, 1), (91, 2), (91, 3), (91, 4),
                 (92, 1), (92, 2), (92, 3), (92, 4), (93, 1), (93, 2), (93, 4), (94, 1), (94, 3), (94, 4), (95, 4),
                 (96, 1), (96, 2), (96, 3), (96, 4), (97, 3), (97, 4), (98, 2), (98, 4), (99, 1), (99, 3), (99, 4),
                 (100, 1), (100, 4), (101, 1), (101, 3), (101, 4), (102, 2), (102, 4), (103, 4), (104, 4), (105, 2),
                 (105, 4), (106, 4), (107, 4), (108, 3), (108, 4), (109, 3), (109, 4), (110, 1), (110, 4), (111, 2),
                 (111, 3), (111, 4), (112, 2), (112, 3), (112, 4), (113, 1), (113, 2), (113, 3), (113, 4), (114, 3),
                 (114, 4), (115, 2), (115, 4), (116, 3), (116, 4), (117, 1), (117, 4), (118, 3), (118, 4), (119, 4),
                 (120, 2), (120, 4), (121, 1), (121, 3), (121, 4), (122, 2), (122, 4), (123, 2), (123, 3), (123, 4),
                 (124, 1), (124, 4), (125, 4), (126, 3), (126, 4), (127, 2), (127, 4), (128, 1), (128, 2), (128, 4),
                 (129, 1), (129, 3), (129, 4), (130, 3), (130, 4), (131, 3), (131, 4), (132, 1), (132, 3), (132, 4),
                 (133, 1), (133, 3), (133, 4), (134, 3), (134, 4), (135, 1), (135, 4), (136, 4), (137, 3), (137, 4),
                 (138, 1), (138, 2), (138, 3), (138, 4))
$ Visualisation for usage
$   1   2
$   2   1
$   2   2
$   2   4
$   3   4
$   4   4
$   5   3
$   5   4
$   6   1
$   7   2
$   8   1
$   8   3
$   9   1
$   9   2
$  10   4
$  11   4
$  12   1
$  12   4
$  13   1
$  13   2
$  14   2
$  15   1
$  15   2
$  15   3
$  16   4
$  17   1
$  17   4
$  18   4
$  19   2
$  19   3
$  19   4
$  20   2
$  21   4
$  22   4
$  23   1
$  23   3
$  24   4
$  25   4
$  26   1
$  26   2
$  26   3
$  26   4
$  27   1
$  27   3
$  28   3
$  29   1
$  29   2
$  30   4
$  31   2
$  31   3
$  31   4
$  32   3
$  33   1
$  33   3
$  34   1
$  34   3
$  34   4
$  35   2
$  35   3
$  35   4
$  36   2
$  36   4
$  37   4
$  38   2
$  39   1
$  39   2
$  39   3
$  39   4
$  40   3
$  40   4
$  41   4
$  42   2
$  42   4
$  43   3
$  44   1
$  44   2
$  44   3
$  44   4
$  45   2
$  45   3
$  45   4
$  46   2
$  46   4
$  47   2
$  47   3
$  47   4
$  48   3
$  49   1
$  49   3
$  50   1
$  51   4
$  52   1
$  52   4
$  53   1
$  53   3
$  54   2
$  54   3
$  54   4
$  55   1
$  55   2
$  56   2
$  56   3
$  56   4
$  57   4
$  58   1
$  59   1
$  59   2
$  59   4
$  60   1
$  60   3
$  61   4
$  62   2
$  63   4
$  64   1
$  64   2
$  64   4
$  65   4
$  66   4
$  67   1
$  67   4
$  68   2
$  68   3
$  69   1
$  70   2
$  71   1
$  72   2
$  73   4
$  74   4
$  75   1
$  75   2
$  75   3
$  75   4
$  76   1
$  77   1
$  77   3
$  78   1
$  78   3
$  79   3
$  80   2
$  80   3
$  81   1
$  81   2
$  81   4
$  82   1
$  82   2
$  82   3
$  83   3
$  84   1
$  84   4
$  85   1
$  85   4
$  86   1
$  86   4
$  87   2
$  87   3
$  87   4
$  88   2
$  88   4
$  89   3
$  89   4
$  90   2
$  90   3
$  90   4
$  91   1
$  91   2
$  91   3
$  91   4
$  92   1
$  92   2
$  92   3
$  92   4
$  93   1
$  93   2
$  93   4
$  94   1
$  94   3
$  94   4
$  95   4
$  96   1
$  96   2
$  96   3
$  96   4
$  97   3
$  97   4
$  98   2
$  98   4
$  99   1
$  99   3
$  99   4
$ 100   1
$ 100   4
$ 101   1
$ 101   3
$ 101   4
$ 102   2
$ 102   4
$ 103   4
$ 104   4
$ 105   2
$ 105   4
$ 106   4
$ 107   4
$ 108   3
$ 108   4
$ 109   3
$ 109   4
$ 110   1
$ 110   4
$ 111   2
$ 111   3
$ 111   4
$ 112   2
$ 112   3
$ 112   4
$ 113   1
$ 113   2
$ 113   3
$ 113   4
$ 114   3
$ 114   4
$ 115   2
$ 115   4
$ 116   3
$ 116   4
$ 117   1
$ 117   4
$ 118   3
$ 118   4
$ 119   4
$ 120   2
$ 120   4
$ 121   1
$ 121   3
$ 121   4
$ 122   2
$ 122   4
$ 123   2
$ 123   3
$ 123   4
$ 124   1
$ 124   4
$ 125   4
$ 126   3
$ 126   4
$ 127   2
$ 127   4
$ 128   1
$ 128   2
$ 128   4
$ 129   1
$ 129   3
$ 129   4
$ 130   3
$ 130   4
$ 131   3
$ 131   4
$ 132   1
$ 132   3
$ 132   4
$ 133   1
$ 133   3
$ 133   4
$ 134   3
$ 134   4
$ 135   1
$ 135   4
$ 136   4
$ 137   3
$ 137   4
$ 138   1
$ 138   2
$ 138   3
$ 138   4

